p edge 23 71
e 1 2 1
e 1 4 1
e 1 7 1
e 1 9 1
e 1 13 1
e 1 15 1
e 1 18 1
e 1 20 1
e 2 3 1
e 2 6 1
e 2 8 1
e 2 12 1
e 2 14 1
e 2 17 1
e 2 19 1
e 3 5 1
e 3 7 1
e 3 10 1
e 3 13 1
e 3 16 1
e 3 18 1
e 3 21 1
e 4 5 1
e 4 6 1
e 4 10 1
e 4 12 1
e 4 16 1
e 4 17 1
e 4 21 1
e 5 8 1
e 5 9 1
e 5 14 1
e 5 15 1
e 5 19 1
e 5 20 1
e 6 11 1
e 6 13 1
e 6 15 1
e 6 22 1
e 7 11 1
e 7 12 1
e 7 14 1
e 7 22 1
e 8 11 1
e 8 13 1
e 8 16 1
e 8 22 1
e 9 11 1
e 9 12 1
e 9 16 1
e 9 22 1
e 10 11 1
e 10 14 1
e 10 15 1
e 10 22 1
e 11 17 1
e 11 18 1
e 11 19 1
e 11 20 1
e 11 21 1
e 12 23 1
e 13 23 1
e 14 23 1
e 15 23 1
e 16 23 1
e 17 23 1
e 18 23 1
e 19 23 1
e 20 23 1
e 21 23 1
e 22 23 1